c
c start with comments
c
p cnf 23 25
-3 8 -23 0
-21 4 14 3 0
9 -4 0
8 -6 -20 15 -21 0
-5 -12 -2 0
-5 22 10 0
16 12 12 0
20 19 0
-6 -16 17 5 22 0
-8 -18 17 -14 -7 0
-21 -17 15 10 0
-22 -14 -16 11 0
-17 -17 -2 4 0
7 7 -6 -18 -6 0
-20 8 -15 -1 11 0
-11 -16 -5 0
-20 5 10 0
4 11 -18 -22 23 -21 0
-14 23 -12 -14 1 10 0
18 -22 -14 18 2 0
-11 3 -10 -11 0
-8 -13 2 0
-10 -3 7 0
-14 -23 3 0
-14 18 -2 -19 0